; benchmark generated from python API
(set-info :status unknown)
(declare-fun x_months () (_ BitVec 32))
(declare-fun x_beta () (_ BitVec 32))
(assert
 (bvsle (_ bv4294966096 32) x_months))
(assert
 (bvsge (_ bv1199 32) x_months))
(assert
 (bvsle (_ bv0 32) x_beta))
(assert
 (let ((?x83194 (bvadd x_months (_ bv24003 32))))
 (let ((?x91000 (bvsub ?x83194 (bvmul (bvsdiv (bvsub ?x83194 (_ bv1 32)) (_ bv12 32)) (_ bv12 32)))))
 (let ((?x75128 (ite (or (= ?x91000 (_ bv4 32)) (= ?x91000 (_ bv6 32)) (= ?x91000 (_ bv9 32)) (= ?x91000 (_ bv11 32))) (_ bv30 32) (_ bv31 32))))
 (let (($x54402 (and (= (bvsmod (bvsdiv (bvsub ?x83194 (_ bv1 32)) (_ bv12 32)) (_ bv4 32)) (_ bv0 32)) (and (distinct (bvsmod (bvsdiv (bvsub ?x83194 (_ bv1 32)) (_ bv12 32)) (_ bv100 32)) (_ bv0 32)) true))))
 (let ((?x37733 (ite (or $x54402 (= (bvsmod (bvsdiv (bvsub ?x83194 (_ bv1 32)) (_ bv12 32)) (_ bv400 32)) (_ bv0 32))) (_ bv29 32) (_ bv28 32))))
 (bvslt x_beta (ite (= ?x91000 (_ bv2 32)) ?x37733 ?x75128))))))))
(assert
 (let (($x77695 (bvsle (_ bv30 32) x_beta)))
 (or (bvsgt x_months (bvsub (bvadd (bvmul (_ bv2023 32) (_ bv12 32)) (_ bv1 32)) (_ bv24003 32))) (and (= x_months (bvsub (bvadd (bvmul (_ bv2023 32) (_ bv12 32)) (_ bv1 32)) (_ bv24003 32))) $x77695))))
(assert
 (let ((?x42383 (bvadd x_beta (_ bv1 32))))
(let ((?x83818 (bvsdiv (bvsub (bvadd (bvadd x_months (_ bv1 32)) (_ bv24003 32)) (_ bv1 32)) (_ bv12 32))))
(let ((?x80453 (bvadd (bvadd x_months (_ bv1 32)) (_ bv24003 32))))
(let ((?x27255 (bvsub ?x80453 (bvmul ?x83818 (_ bv12 32)))))
(let ((?x38283 (ite (or (= ?x27255 (_ bv4 32)) (= ?x27255 (_ bv6 32)) (= ?x27255 (_ bv9 32)) (= ?x27255 (_ bv11 32))) (_ bv30 32) (_ bv31 32))))
(let (($x41747 (or (and (= (bvsmod ?x83818 (_ bv4 32)) (_ bv0 32)) (and (distinct (bvsmod ?x83818 (_ bv100 32)) (_ bv0 32)) true)) (= (bvsmod ?x83818 (_ bv400 32)) (_ bv0 32)))))
(let ((?x63426 (ite (= ?x27255 (_ bv2 32)) (ite $x41747 (_ bv29 32) (_ bv28 32)) ?x38283)))
(let ((?x19840 (ite (bvsgt (_ bv1 32) ?x42383) (_ bv1 32) (ite (bvsgt ?x42383 ?x63426) ?x63426 ?x42383))))
(let ((?x85128 (ite (bvsgt (_ bv1 32) ?x19840) (_ bv1 32) (ite (bvsgt ?x19840 ?x63426) ?x63426 ?x19840))))
(let ((?x12374 (ite (= (_ bv2 32) ?x27255) (ite $x41747 (_ bv31 32) (_ bv31 32)) (ite (= (_ bv1 32) ?x27255) (ite $x41747 (_ bv0 32) (_ bv0 32)) (_ bv0 32)))))
(let ((?x19303 (ite (= (_ bv4 32) ?x27255) (ite $x41747 (_ bv91 32) (_ bv90 32)) (ite (= (_ bv3 32) ?x27255) (ite $x41747 (_ bv60 32) (_ bv59 32)) ?x12374))))
(let ((?x4727 (ite (= (_ bv6 32) ?x27255) (ite $x41747 (_ bv152 32) (_ bv151 32)) (ite (= (_ bv5 32) ?x27255) (ite $x41747 (_ bv121 32) (_ bv120 32)) ?x19303))))
(let ((?x3865 (ite (= (_ bv8 32) ?x27255) (ite $x41747 (_ bv213 32) (_ bv212 32)) (ite (= (_ bv7 32) ?x27255) (ite $x41747 (_ bv182 32) (_ bv181 32)) ?x4727))))
(let ((?x54438 (ite (= (_ bv10 32) ?x27255) (ite $x41747 (_ bv274 32) (_ bv273 32)) (ite (= (_ bv9 32) ?x27255) (ite $x41747 (_ bv244 32) (_ bv243 32)) ?x3865))))
(let ((?x33089 (ite (= (_ bv12 32) ?x27255) (ite $x41747 (_ bv335 32) (_ bv334 32)) (ite (= (_ bv11 32) ?x27255) (ite $x41747 (_ bv305 32) (_ bv304 32)) ?x54438))))
(let ((?x7407 (bvadd (bvmul (_ bv365 32) (bvsub ?x83818 (_ bv1 32))) (bvsdiv (bvsub ?x83818 (_ bv1 32)) (_ bv4 32)))))
(let ((?x39204 (bvadd (bvsub ?x7407 (bvsdiv (bvsub ?x83818 (_ bv1 32)) (_ bv100 32))) (bvsdiv (bvsub ?x83818 (_ bv1 32)) (_ bv400 32)))))
(let ((?x88693 (bvadd (bvadd (bvsub (bvadd (bvadd ?x39204 ?x33089) (bvsub ?x85128 (_ bv1 32))) (_ bv730179 32)) (_ bv0 32)) (_ bv730179 32))))
(let ((?x67825 (bvsmod ?x88693 (_ bv146097 32))))
(let ((?x20043 (bvsdiv ?x67825 (_ bv36524 32))))
(let ((?x38875 (ite (bvsle (_ bv4 32) ?x20043) (_ bv3 32) ?x20043)))
(let ((?x64788 (bvsub ?x67825 (bvmul ?x38875 (_ bv36524 32)))))
(let ((?x67209 (bvsmod ?x64788 (_ bv1461 32))))
(let ((?x7331 (bvsdiv ?x67209 (_ bv365 32))))
(let ((?x27417 (ite (bvsle (_ bv4 32) ?x7331) (_ bv3 32) ?x7331)))
(let ((?x52474 (bvadd (bvadd (bvmul (bvsdiv ?x88693 (_ bv146097 32)) (_ bv400 32)) (bvmul ?x38875 (_ bv100 32))) (bvmul (bvsdiv ?x64788 (_ bv1461 32)) (_ bv4 32)))))
(let ((?x15920 (bvadd (bvadd ?x52474 ?x27417) (_ bv1 32))))
(let (($x4941 (or (and (= (bvsmod ?x15920 (_ bv4 32)) (_ bv0 32)) (and (distinct (bvsmod ?x15920 (_ bv100 32)) (_ bv0 32)) true)) (= (bvsmod ?x15920 (_ bv400 32)) (_ bv0 32)))))
(let ((?x64576 (bvsub ?x67209 (bvmul ?x27417 (_ bv365 32)))))
(let ((?x18609 (ite $x4941 (_ bv31 32) (_ bv31 32))))
(let (($x86964 (bvsge ?x64576 ?x18609)))
(let ((?x83816 (ite $x86964 (bvadd (bvsub ?x64576 ?x18609) (_ bv1 32)) (bvadd (bvsub ?x64576 (ite $x4941 (_ bv0 32) (_ bv0 32))) (_ bv1 32)))))
(let ((?x24384 (ite $x4941 (_ bv60 32) (_ bv59 32))))
(let (($x77101 (bvsge ?x64576 ?x24384)))
(let ((?x85050 (ite $x4941 (_ bv91 32) (_ bv90 32))))
(let (($x79168 (bvsge ?x64576 ?x85050)))
(let ((?x9018 (ite $x79168 (bvadd (bvsub ?x64576 ?x85050) (_ bv1 32)) (ite $x77101 (bvadd (bvsub ?x64576 ?x24384) (_ bv1 32)) ?x83816))))
(let ((?x54262 (ite $x4941 (_ bv121 32) (_ bv120 32))))
(let (($x98131 (bvsge ?x64576 ?x54262)))
(let ((?x54119 (ite $x4941 (_ bv152 32) (_ bv151 32))))
(let (($x88697 (bvsge ?x64576 ?x54119)))
(let ((?x47747 (ite $x88697 (bvadd (bvsub ?x64576 ?x54119) (_ bv1 32)) (ite $x98131 (bvadd (bvsub ?x64576 ?x54262) (_ bv1 32)) ?x9018))))
(let ((?x52499 (ite $x4941 (_ bv182 32) (_ bv181 32))))
(let (($x4254 (bvsge ?x64576 ?x52499)))
(let ((?x4972 (ite $x4941 (_ bv213 32) (_ bv212 32))))
(let (($x73635 (bvsge ?x64576 ?x4972)))
(let ((?x47910 (ite $x73635 (bvadd (bvsub ?x64576 ?x4972) (_ bv1 32)) (ite $x4254 (bvadd (bvsub ?x64576 ?x52499) (_ bv1 32)) ?x47747))))
(let ((?x10136 (ite $x4941 (_ bv244 32) (_ bv243 32))))
(let (($x20748 (bvsge ?x64576 ?x10136)))
(let ((?x98798 (ite $x4941 (_ bv274 32) (_ bv273 32))))
(let (($x18598 (bvsge ?x64576 ?x98798)))
(let ((?x47013 (ite $x18598 (bvadd (bvsub ?x64576 ?x98798) (_ bv1 32)) (ite $x20748 (bvadd (bvsub ?x64576 ?x10136) (_ bv1 32)) ?x47910))))
(let ((?x82510 (ite $x4941 (_ bv305 32) (_ bv304 32))))
(let (($x48030 (bvsge ?x64576 ?x82510)))
(let ((?x37047 (ite $x4941 (_ bv335 32) (_ bv334 32))))
(let (($x30104 (bvsge ?x64576 ?x37047)))
(let ((?x47292 (ite $x30104 (bvadd (bvsub ?x64576 ?x37047) (_ bv1 32)) (ite $x48030 (bvadd (bvsub ?x64576 ?x82510) (_ bv1 32)) ?x47013))))
(let (($x5114 (= (_ bv0 32) (_ bv0 32))))
(let ((?x47794 (bvsub (bvadd (bvmul (_ bv2023 32) (_ bv12 32)) (_ bv3 32)) (_ bv24003 32))))
(let ((?x53299 (ite $x88697 (_ bv6 32) (ite $x98131 (_ bv5 32) (ite $x79168 (_ bv4 32) (ite $x77101 (_ bv3 32) (ite $x86964 (_ bv2 32) (_ bv1 32))))))))
(let ((?x28113 (ite $x48030 (_ bv11 32) (ite $x18598 (_ bv10 32) (ite $x20748 (_ bv9 32) (ite $x73635 (_ bv8 32) (ite $x4254 (_ bv7 32) ?x53299)))))))
(let ((?x53418 (bvadd (bvmul (ite $x5114 ?x83818 ?x15920) (_ bv12 32)) (ite $x5114 ?x27255 (ite $x30104 (_ bv12 32) ?x28113)))))
(let ((?x47594 (bvsub ?x53418 (_ bv24003 32))))
(or (bvslt ?x47594 ?x47794) (and (= ?x47594 ?x47794) (bvsge (_ bv0 32) (bvsub (ite $x5114 ?x85128 ?x47292) (_ bv1 32)))))))))))))))))))))))))))))))))))))))))))))))))))))))))))))))))))))
(check-sat)
